
List of user-set options:

                                    Name   Value                used
                        file_print_level = 5                     yes
                   hessian_approximation = limited-memory        yes
                                  hsllib = /home/ggs24/packages/ThirdParty-HSL/.libs/libcoinhsl.so  yes
                           linear_solver = ma97                  yes
                                max_iter = 200                   yes
                             output_file = IPOPT.out             yes
                             print_level = 0                     yes
                      print_user_options = yes                   yes
                                      sb = yes                   yes
This is Ipopt version 3.14.7, running with linear solver ma97.

Number of nonzeros in equality constraint Jacobian...:       68
Number of nonzeros in inequality constraint Jacobian.:     8568
Number of nonzeros in Lagrangian Hessian.............:        0

Total number of variables............................:       17
                     variables with only lower bounds:        1
                variables with lower and upper bounds:        0
                     variables with only upper bounds:        0
Total number of equality constraints.................:        4
Total number of inequality constraints...............:      504
        inequality constraints with only lower bounds:        0
   inequality constraints with lower and upper bounds:      378
        inequality constraints with only upper bounds:      126

iter    objective    inf_pr   inf_du lg(mu)  ||d||  lg(rg) alpha_du alpha_pr  ls
   0  1.1289505e+01 4.46e-06 6.97e-01   0.0 0.00e+00    -  0.00e+00 0.00e+00   0
   1  1.1347773e+01 4.44e-16 6.21e-02  -2.3 5.83e-02    -  9.85e-01 1.00e+00f  1
   2  1.1334289e+01 0.00e+00 8.96e-03  -3.1 5.13e-02    -  9.95e-01 1.00e+00h  1
   3  1.1315297e+01 4.44e-16 1.56e-02  -3.1 2.59e-01    -  1.00e+00 7.86e-01h  1
   4  1.1319187e+01 0.00e+00 7.58e-02  -3.1 5.46e-02    -  5.91e-01 1.00e+00h  1
   5  1.1292626e+01 0.00e+00 8.38e-03  -3.8 5.05e-02    -  1.00e+00 8.26e-01h  1
   6  1.1266789e+01 0.00e+00 1.09e-02  -3.9 1.54e-01    -  1.00e+00 1.00e+00h  1
   7  1.1257608e+01 8.88e-16 5.14e-03  -5.0 5.74e-02    -  1.00e+00 9.08e-01h  1
   8  1.1256903e+01 1.06e-05 1.41e-01  -5.1 2.71e-02    -  1.00e+00 7.27e-01h  1
   9  1.1256473e+01 3.54e-06 1.55e-01  -5.6 4.54e-02    -  1.00e+00 8.80e-01h  1
iter    objective    inf_pr   inf_du lg(mu)  ||d||  lg(rg) alpha_du alpha_pr  ls
  10  1.1256581e+01 4.44e-16 6.18e-02  -5.3 2.93e-02    -  9.37e-01 1.00e+00h  1
  11  1.1256461e+01 8.25e-08 2.96e-01  -6.7 6.25e-03    -  1.00e+00 4.84e-01h  1
  12  1.1256419e+01 8.88e-16 3.53e-01  -6.2 2.67e-03    -  1.00e+00 8.18e-01h  1
  13  1.1256411e+01 5.86e-08 2.00e-01  -6.6 4.27e-03    -  1.00e+00 7.62e-01h  1
  14  1.1256409e+01 4.44e-16 5.47e-05  -6.9 5.41e-03    -  1.00e+00 1.00e+00h  1
  15  1.1256408e+01 2.65e-08 8.04e-03  -7.9 1.89e-03    -  1.00e+00 9.21e-01h  1
  16  1.1256408e+01 3.16e-09 9.30e-07  -8.9 6.15e-04    -  1.00e+00 1.00e+00h  1
  17  1.1256408e+01 2.52e-10 1.87e-07  -9.7 2.19e-04    -  1.00e+00 1.00e+00h  1
  18  1.1256408e+01 8.88e-16 6.72e-08 -11.0 2.73e-05    -  1.00e+00 1.00e+00h  1
  19  1.1256408e+01 4.44e-16 3.92e-09 -11.0 1.19e-05    -  1.00e+00 1.00e+00h  1

Number of Iterations....: 19

                                   (scaled)                 (unscaled)
Objective...............:   1.1256407714258433e+01    1.1256407714258433e+01
Dual infeasibility......:   3.9204747503962523e-09    3.9204747503962523e-09
Constraint violation....:   4.4408920985006262e-16    4.4408920985006262e-16
Variable bound violation:   0.0000000000000000e+00    0.0000000000000000e+00
Complementarity.........:   1.0002556190880301e-11    1.0002556190880301e-11
Overall NLP error.......:   3.9204747503962523e-09    3.9204747503962523e-09


Number of objective function evaluations             = 20
Number of objective gradient evaluations             = 20
Number of equality constraint evaluations            = 20
Number of inequality constraint evaluations          = 20
Number of equality constraint Jacobian evaluations   = 20
Number of inequality constraint Jacobian evaluations = 20
Number of Lagrangian Hessian evaluations             = 0
Total seconds in IPOPT                               = 0.395

EXIT: Optimal Solution Found.
